 bands_plot        = .true.
 !dos             = .true.
 !dos_kmesh       = 150 150 1
 !dos_energy_min  = -0.01
 !dos_energy_max  =  0.01
 !dos_energy_step = 0.00001
 !dos_adpt_smr    = .true.
 !adpt_smr_max    = 0.0001
 !restart=wannierise
 use_ws_distance   = .true.
 write_hr          = .true.
 write_tb          = .true.
 write_u_matrices  = .true.
 write_xyz         = .true.
 trial_step        = 0.2
 !slwf_constrain    = true
 !slwf_lambda       = 200
 !site_symmetry = .true.
 !symmetrize_eps=  1d-5

 dis_win_min       =  -0.25
 dis_win_max       =   0.25
 dis_froz_min      =  -0.047
 dis_froz_max      =   0.053

 !slwf_num          =           4
 num_bands         =           24
 num_wann          =           12
 dis_mix_ratio     = 0.8
 dis_num_iter      =         3000
 num_iter          =         5000
 num_print_cycles  = 200
 search_shells     = 1000
 kmesh_tol         = 0.000001
 mp_grid           =           12          12           1

 Begin Projections
f=  0.3333333000    ,  0.3333333300    ,   0.000000000    :px  
f=  0.3333333000    ,  0.3333333300    ,   0.000000000    :py  
f=  0.6666666000    ,  0.6666666600    ,   0.000000000    :px  
f=  0.6666666000    ,  0.6666666600    ,   0.000000000    :py  
f=  0.3333333000    ,  0.6666666600    ,   0.000000000    :s   
f=  0.6666666000    ,  0.3333333300    ,   0.000000000    :s   
f=  0.3333333000    ,   0.000000000    ,   0.000000000    :s   
f=   0.000000000    ,  0.3333333300    ,   0.000000000    :s   
f=  0.6666666000    ,   0.000000000    ,   0.000000000    :s   
f=   0.000000000    ,  0.6666666600    ,   0.000000000    :s   
f=   0.000000000    ,   0.000000000    ,   0.000000000    :s   
f=   0.000000000    ,   0.000000000    ,   0.000000000    :pz  
 End Projections
!  -39.35999957    ,   66.75323343    ,   0.000000000    
!  -39.35999957    ,   66.75323343    ,   0.000000000    
!  -78.71999914    ,   133.5064669    ,   0.000000000    
!  -78.71999914    ,   133.5064669    ,   0.000000000    
!  -78.30999918    ,   88.76759897    ,   0.000000000    
!  -39.76999953    ,   111.4921013    ,   0.000000000    
! -0.4099999590    ,   44.73886789    ,   0.000000000    
!  -38.94999961    ,   22.01436554    ,   0.000000000    
! -0.8199999180    ,   89.47773577    ,   0.000000000    
!  -77.89999922    ,   44.02873109    ,   0.000000000    
!   0.000000000    ,   0.000000000    ,   0.000000000    
!   0.000000000    ,   0.000000000    ,   0.000000000    

 begin kpoint_path
X   0.66666600  0.33333300  0.00000000 X   0.50000000  0.00000000  0.00000000
X   0.50000000  0.00000000  0.00000000 X   0.00000000  0.00000000  0.00000000
X   0.00000000  0.00000000  0.00000000 X   0.33333300  0.66666600  0.00000000
 end kpoint_path

 Begin Unit_Cell_Cart
  -1.230000000       134.2166171       0.000000000    
  -116.8500000       66.04309729       0.000000000    
   0.000000000       0.000000000       137.5722530    
 End Unit_Cell_Cart

 Begin Atoms_Frac
XX  0.3333333000      0.3333333300       0.000000000    
XX  0.3333333000      0.3333333300       0.000000000    
XX  0.6666666000      0.6666666600       0.000000000    
XX  0.6666666000      0.6666666600       0.000000000    
XX  0.3333333000      0.6666666600       0.000000000    
XX  0.6666666000      0.3333333300       0.000000000    
XX  0.3333333000       0.000000000       0.000000000    
XX   0.000000000      0.3333333300       0.000000000    
XX  0.6666666000       0.000000000       0.000000000    
XX   0.000000000      0.6666666600       0.000000000    
XX   0.000000000       0.000000000       0.000000000    
XX   0.000000000       0.000000000       0.000000000    
 End Atoms_Frac

 Begin kpoints
  0.00000000  0.00000000  0.00000000
  0.00000000  0.08333333  0.00000000
  0.00000000  0.16666667  0.00000000
  0.00000000  0.25000000  0.00000000
  0.00000000  0.33333333  0.00000000
  0.00000000  0.41666667  0.00000000
  0.00000000  0.50000000  0.00000000
  0.00000000  0.58333333  0.00000000
  0.00000000  0.66666667  0.00000000
  0.00000000  0.75000000  0.00000000
  0.00000000  0.83333333  0.00000000
  0.00000000  0.91666667  0.00000000
  0.08333333  0.00000000  0.00000000
  0.08333333  0.08333333  0.00000000
  0.08333333  0.16666667  0.00000000
  0.08333333  0.25000000  0.00000000
  0.08333333  0.33333333  0.00000000
  0.08333333  0.41666667  0.00000000
  0.08333333  0.50000000  0.00000000
  0.08333333  0.58333333  0.00000000
  0.08333333  0.66666667  0.00000000
  0.08333333  0.75000000  0.00000000
  0.08333333  0.83333333  0.00000000
  0.08333333  0.91666667  0.00000000
  0.16666667  0.00000000  0.00000000
  0.16666667  0.08333333  0.00000000
  0.16666667  0.16666667  0.00000000
  0.16666667  0.25000000  0.00000000
  0.16666667  0.33333333  0.00000000
  0.16666667  0.41666667  0.00000000
  0.16666667  0.50000000  0.00000000
  0.16666667  0.58333333  0.00000000
  0.16666667  0.66666667  0.00000000
  0.16666667  0.75000000  0.00000000
  0.16666667  0.83333333  0.00000000
  0.16666667  0.91666667  0.00000000
  0.25000000  0.00000000  0.00000000
  0.25000000  0.08333333  0.00000000
  0.25000000  0.16666667  0.00000000
  0.25000000  0.25000000  0.00000000
  0.25000000  0.33333333  0.00000000
  0.25000000  0.41666667  0.00000000
  0.25000000  0.50000000  0.00000000
  0.25000000  0.58333333  0.00000000
  0.25000000  0.66666667  0.00000000
  0.25000000  0.75000000  0.00000000
  0.25000000  0.83333333  0.00000000
  0.25000000  0.91666667  0.00000000
  0.33333333  0.00000000  0.00000000
  0.33333333  0.08333333  0.00000000
  0.33333333  0.16666667  0.00000000
  0.33333333  0.25000000  0.00000000
  0.33333333  0.33333333  0.00000000
  0.33333333  0.41666667  0.00000000
  0.33333333  0.50000000  0.00000000
  0.33333333  0.58333333  0.00000000
  0.33333333  0.66666667  0.00000000
  0.33333333  0.75000000  0.00000000
  0.33333333  0.83333333  0.00000000
  0.33333333  0.91666667  0.00000000
  0.41666667  0.00000000  0.00000000
  0.41666667  0.08333333  0.00000000
  0.41666667  0.16666667  0.00000000
  0.41666667  0.25000000  0.00000000
  0.41666667  0.33333333  0.00000000
  0.41666667  0.41666667  0.00000000
  0.41666667  0.50000000  0.00000000
  0.41666667  0.58333333  0.00000000
  0.41666667  0.66666667  0.00000000
  0.41666667  0.75000000  0.00000000
  0.41666667  0.83333333  0.00000000
  0.41666667  0.91666667  0.00000000
  0.50000000  0.00000000  0.00000000
  0.50000000  0.08333333  0.00000000
  0.50000000  0.16666667  0.00000000
  0.50000000  0.25000000  0.00000000
  0.50000000  0.33333333  0.00000000
  0.50000000  0.41666667  0.00000000
  0.50000000  0.50000000  0.00000000
  0.50000000  0.58333333  0.00000000
  0.50000000  0.66666667  0.00000000
  0.50000000  0.75000000  0.00000000
  0.50000000  0.83333333  0.00000000
  0.50000000  0.91666667  0.00000000
  0.58333333  0.00000000  0.00000000
  0.58333333  0.08333333  0.00000000
  0.58333333  0.16666667  0.00000000
  0.58333333  0.25000000  0.00000000
  0.58333333  0.33333333  0.00000000
  0.58333333  0.41666667  0.00000000
  0.58333333  0.50000000  0.00000000
  0.58333333  0.58333333  0.00000000
  0.58333333  0.66666667  0.00000000
  0.58333333  0.75000000  0.00000000
  0.58333333  0.83333333  0.00000000
  0.58333333  0.91666667  0.00000000
  0.66666667  0.00000000  0.00000000
  0.66666667  0.08333333  0.00000000
  0.66666667  0.16666667  0.00000000
  0.66666667  0.25000000  0.00000000
  0.66666667  0.33333333  0.00000000
  0.66666667  0.41666667  0.00000000
  0.66666667  0.50000000  0.00000000
  0.66666667  0.58333333  0.00000000
  0.66666667  0.66666667  0.00000000
  0.66666667  0.75000000  0.00000000
  0.66666667  0.83333333  0.00000000
  0.66666667  0.91666667  0.00000000
  0.75000000  0.00000000  0.00000000
  0.75000000  0.08333333  0.00000000
  0.75000000  0.16666667  0.00000000
  0.75000000  0.25000000  0.00000000
  0.75000000  0.33333333  0.00000000
  0.75000000  0.41666667  0.00000000
  0.75000000  0.50000000  0.00000000
  0.75000000  0.58333333  0.00000000
  0.75000000  0.66666667  0.00000000
  0.75000000  0.75000000  0.00000000
  0.75000000  0.83333333  0.00000000
  0.75000000  0.91666667  0.00000000
  0.83333333  0.00000000  0.00000000
  0.83333333  0.08333333  0.00000000
  0.83333333  0.16666667  0.00000000
  0.83333333  0.25000000  0.00000000
  0.83333333  0.33333333  0.00000000
  0.83333333  0.41666667  0.00000000
  0.83333333  0.50000000  0.00000000
  0.83333333  0.58333333  0.00000000
  0.83333333  0.66666667  0.00000000
  0.83333333  0.75000000  0.00000000
  0.83333333  0.83333333  0.00000000
  0.83333333  0.91666667  0.00000000
  0.91666667  0.00000000  0.00000000
  0.91666667  0.08333333  0.00000000
  0.91666667  0.16666667  0.00000000
  0.91666667  0.25000000  0.00000000
  0.91666667  0.33333333  0.00000000
  0.91666667  0.41666667  0.00000000
  0.91666667  0.50000000  0.00000000
  0.91666667  0.58333333  0.00000000
  0.91666667  0.66666667  0.00000000
  0.91666667  0.75000000  0.00000000
  0.91666667  0.83333333  0.00000000
  0.91666667  0.91666667  0.00000000
 End kpoints
