 bands_plot        = .true.
 !dos             = .true.
 !dos_kmesh       = 150 150 1
 !dos_energy_min  = -0.01
 !dos_energy_max  =  0.01
 !dos_energy_step = 0.00001
 !dos_adpt_smr    = .true.
 !adpt_smr_max    = 0.0001
 !restart=wannierise
 use_ws_distance   = .true.
 write_hr          = .true.
 write_tb          = .true.
 write_u_matrices  = .true.
 write_xyz         = .true.
 trial_step        = 0.2
! slwf_constrain    = true
! slwf_lambda       = 200
 site_symmetry = .true.
 symmetrize_eps=  1d-7

 dis_win_min       =  -100.00000000000000     
 dis_win_max       =   100.00000000000000     
 dis_froz_min      =  -100.00000000000000     
 dis_froz_max      =   100.00000000000000     

! slwf_num          =            4
 num_bands         =            4
 num_wann          =            4
 dis_mix_ratio     = 0.8
 dis_num_iter      =         1000
 num_iter          =         10000
 num_print_cycles  = 200
 search_shells     = 1000
 kmesh_tol         = 0.000001
 mp_grid           =           24          24           1

 Begin Projections
f=  0.3333333330    ,  0.3333333330    ,   0.000000000    :px  
f=  0.3333333330    ,  0.3333333330    ,   0.000000000    :py  
f=  0.6666666660    ,  0.6666666660    ,   0.000000000    :px  
f=  0.6666666660    ,  0.6666666660    ,   0.000000000    :py  
 End Projections
!  -39.35999996    ,   66.75323806    ,   0.000000000    
!  -39.35999996    ,   66.75323806    ,   0.000000000    
!  -78.71999992    ,   133.5064761    ,   0.000000000    
!  -78.71999992    ,   133.5064761    ,   0.000000000    

 begin kpoint_path
X   0.66666600  0.33333300  0.00000000 X   0.50000000  0.00000000  0.00000000
X   0.50000000  0.00000000  0.00000000 X   0.00000000  0.00000000  0.00000000
X   0.00000000  0.00000000  0.00000000 X   0.33333300  0.66666600  0.00000000
 end kpoint_path

 Begin Unit_Cell_Cart
  -1.230000000       134.2166171       0.000000000    
  -116.8500000       66.04309729       0.000000000    
   0.000000000       0.000000000       137.5722530    
 End Unit_Cell_Cart

 Begin Atoms_Frac
XX  0.3333333330      0.3333333330       0.000000000    
XX  0.3333333330      0.3333333330       0.000000000    
XX  0.6666666660      0.6666666660       0.000000000    
XX  0.6666666660      0.6666666660       0.000000000    
 End Atoms_Frac

 Begin kpoints
  0.00000000  0.00000000  0.00000000
  0.00000000  0.04166667  0.00000000
  0.00000000  0.08333333  0.00000000
  0.00000000  0.12500000  0.00000000
  0.00000000  0.16666667  0.00000000
  0.00000000  0.20833333  0.00000000
  0.00000000  0.25000000  0.00000000
  0.00000000  0.29166667  0.00000000
  0.00000000  0.33333333  0.00000000
  0.00000000  0.37500000  0.00000000
  0.00000000  0.41666667  0.00000000
  0.00000000  0.45833333  0.00000000
  0.00000000  0.50000000  0.00000000
  0.00000000  0.54166667  0.00000000
  0.00000000  0.58333333  0.00000000
  0.00000000  0.62500000  0.00000000
  0.00000000  0.66666667  0.00000000
  0.00000000  0.70833333  0.00000000
  0.00000000  0.75000000  0.00000000
  0.00000000  0.79166667  0.00000000
  0.00000000  0.83333333  0.00000000
  0.00000000  0.87500000  0.00000000
  0.00000000  0.91666667  0.00000000
  0.00000000  0.95833333  0.00000000
  0.04166667  0.00000000  0.00000000
  0.04166667  0.04166667  0.00000000
  0.04166667  0.08333333  0.00000000
  0.04166667  0.12500000  0.00000000
  0.04166667  0.16666667  0.00000000
  0.04166667  0.20833333  0.00000000
  0.04166667  0.25000000  0.00000000
  0.04166667  0.29166667  0.00000000
  0.04166667  0.33333333  0.00000000
  0.04166667  0.37500000  0.00000000
  0.04166667  0.41666667  0.00000000
  0.04166667  0.45833333  0.00000000
  0.04166667  0.50000000  0.00000000
  0.04166667  0.54166667  0.00000000
  0.04166667  0.58333333  0.00000000
  0.04166667  0.62500000  0.00000000
  0.04166667  0.66666667  0.00000000
  0.04166667  0.70833333  0.00000000
  0.04166667  0.75000000  0.00000000
  0.04166667  0.79166667  0.00000000
  0.04166667  0.83333333  0.00000000
  0.04166667  0.87500000  0.00000000
  0.04166667  0.91666667  0.00000000
  0.04166667  0.95833333  0.00000000
  0.08333333  0.00000000  0.00000000
  0.08333333  0.04166667  0.00000000
  0.08333333  0.08333333  0.00000000
  0.08333333  0.12500000  0.00000000
  0.08333333  0.16666667  0.00000000
  0.08333333  0.20833333  0.00000000
  0.08333333  0.25000000  0.00000000
  0.08333333  0.29166667  0.00000000
  0.08333333  0.33333333  0.00000000
  0.08333333  0.37500000  0.00000000
  0.08333333  0.41666667  0.00000000
  0.08333333  0.45833333  0.00000000
  0.08333333  0.50000000  0.00000000
  0.08333333  0.54166667  0.00000000
  0.08333333  0.58333333  0.00000000
  0.08333333  0.62500000  0.00000000
  0.08333333  0.66666667  0.00000000
  0.08333333  0.70833333  0.00000000
  0.08333333  0.75000000  0.00000000
  0.08333333  0.79166667  0.00000000
  0.08333333  0.83333333  0.00000000
  0.08333333  0.87500000  0.00000000
  0.08333333  0.91666667  0.00000000
  0.08333333  0.95833333  0.00000000
  0.12500000  0.00000000  0.00000000
  0.12500000  0.04166667  0.00000000
  0.12500000  0.08333333  0.00000000
  0.12500000  0.12500000  0.00000000
  0.12500000  0.16666667  0.00000000
  0.12500000  0.20833333  0.00000000
  0.12500000  0.25000000  0.00000000
  0.12500000  0.29166667  0.00000000
  0.12500000  0.33333333  0.00000000
  0.12500000  0.37500000  0.00000000
  0.12500000  0.41666667  0.00000000
  0.12500000  0.45833333  0.00000000
  0.12500000  0.50000000  0.00000000
  0.12500000  0.54166667  0.00000000
  0.12500000  0.58333333  0.00000000
  0.12500000  0.62500000  0.00000000
  0.12500000  0.66666667  0.00000000
  0.12500000  0.70833333  0.00000000
  0.12500000  0.75000000  0.00000000
  0.12500000  0.79166667  0.00000000
  0.12500000  0.83333333  0.00000000
  0.12500000  0.87500000  0.00000000
  0.12500000  0.91666667  0.00000000
  0.12500000  0.95833333  0.00000000
  0.16666667  0.00000000  0.00000000
  0.16666667  0.04166667  0.00000000
  0.16666667  0.08333333  0.00000000
  0.16666667  0.12500000  0.00000000
  0.16666667  0.16666667  0.00000000
  0.16666667  0.20833333  0.00000000
  0.16666667  0.25000000  0.00000000
  0.16666667  0.29166667  0.00000000
  0.16666667  0.33333333  0.00000000
  0.16666667  0.37500000  0.00000000
  0.16666667  0.41666667  0.00000000
  0.16666667  0.45833333  0.00000000
  0.16666667  0.50000000  0.00000000
  0.16666667  0.54166667  0.00000000
  0.16666667  0.58333333  0.00000000
  0.16666667  0.62500000  0.00000000
  0.16666667  0.66666667  0.00000000
  0.16666667  0.70833333  0.00000000
  0.16666667  0.75000000  0.00000000
  0.16666667  0.79166667  0.00000000
  0.16666667  0.83333333  0.00000000
  0.16666667  0.87500000  0.00000000
  0.16666667  0.91666667  0.00000000
  0.16666667  0.95833333  0.00000000
  0.20833333  0.00000000  0.00000000
  0.20833333  0.04166667  0.00000000
  0.20833333  0.08333333  0.00000000
  0.20833333  0.12500000  0.00000000
  0.20833333  0.16666667  0.00000000
  0.20833333  0.20833333  0.00000000
  0.20833333  0.25000000  0.00000000
  0.20833333  0.29166667  0.00000000
  0.20833333  0.33333333  0.00000000
  0.20833333  0.37500000  0.00000000
  0.20833333  0.41666667  0.00000000
  0.20833333  0.45833333  0.00000000
  0.20833333  0.50000000  0.00000000
  0.20833333  0.54166667  0.00000000
  0.20833333  0.58333333  0.00000000
  0.20833333  0.62500000  0.00000000
  0.20833333  0.66666667  0.00000000
  0.20833333  0.70833333  0.00000000
  0.20833333  0.75000000  0.00000000
  0.20833333  0.79166667  0.00000000
  0.20833333  0.83333333  0.00000000
  0.20833333  0.87500000  0.00000000
  0.20833333  0.91666667  0.00000000
  0.20833333  0.95833333  0.00000000
  0.25000000  0.00000000  0.00000000
  0.25000000  0.04166667  0.00000000
  0.25000000  0.08333333  0.00000000
  0.25000000  0.12500000  0.00000000
  0.25000000  0.16666667  0.00000000
  0.25000000  0.20833333  0.00000000
  0.25000000  0.25000000  0.00000000
  0.25000000  0.29166667  0.00000000
  0.25000000  0.33333333  0.00000000
  0.25000000  0.37500000  0.00000000
  0.25000000  0.41666667  0.00000000
  0.25000000  0.45833333  0.00000000
  0.25000000  0.50000000  0.00000000
  0.25000000  0.54166667  0.00000000
  0.25000000  0.58333333  0.00000000
  0.25000000  0.62500000  0.00000000
  0.25000000  0.66666667  0.00000000
  0.25000000  0.70833333  0.00000000
  0.25000000  0.75000000  0.00000000
  0.25000000  0.79166667  0.00000000
  0.25000000  0.83333333  0.00000000
  0.25000000  0.87500000  0.00000000
  0.25000000  0.91666667  0.00000000
  0.25000000  0.95833333  0.00000000
  0.29166667  0.00000000  0.00000000
  0.29166667  0.04166667  0.00000000
  0.29166667  0.08333333  0.00000000
  0.29166667  0.12500000  0.00000000
  0.29166667  0.16666667  0.00000000
  0.29166667  0.20833333  0.00000000
  0.29166667  0.25000000  0.00000000
  0.29166667  0.29166667  0.00000000
  0.29166667  0.33333333  0.00000000
  0.29166667  0.37500000  0.00000000
  0.29166667  0.41666667  0.00000000
  0.29166667  0.45833333  0.00000000
  0.29166667  0.50000000  0.00000000
  0.29166667  0.54166667  0.00000000
  0.29166667  0.58333333  0.00000000
  0.29166667  0.62500000  0.00000000
  0.29166667  0.66666667  0.00000000
  0.29166667  0.70833333  0.00000000
  0.29166667  0.75000000  0.00000000
  0.29166667  0.79166667  0.00000000
  0.29166667  0.83333333  0.00000000
  0.29166667  0.87500000  0.00000000
  0.29166667  0.91666667  0.00000000
  0.29166667  0.95833333  0.00000000
  0.33333333  0.00000000  0.00000000
  0.33333333  0.04166667  0.00000000
  0.33333333  0.08333333  0.00000000
  0.33333333  0.12500000  0.00000000
  0.33333333  0.16666667  0.00000000
  0.33333333  0.20833333  0.00000000
  0.33333333  0.25000000  0.00000000
  0.33333333  0.29166667  0.00000000
  0.33333333  0.33333333  0.00000000
  0.33333333  0.37500000  0.00000000
  0.33333333  0.41666667  0.00000000
  0.33333333  0.45833333  0.00000000
  0.33333333  0.50000000  0.00000000
  0.33333333  0.54166667  0.00000000
  0.33333333  0.58333333  0.00000000
  0.33333333  0.62500000  0.00000000
  0.33333333  0.66666667  0.00000000
  0.33333333  0.70833333  0.00000000
  0.33333333  0.75000000  0.00000000
  0.33333333  0.79166667  0.00000000
  0.33333333  0.83333333  0.00000000
  0.33333333  0.87500000  0.00000000
  0.33333333  0.91666667  0.00000000
  0.33333333  0.95833333  0.00000000
  0.37500000  0.00000000  0.00000000
  0.37500000  0.04166667  0.00000000
  0.37500000  0.08333333  0.00000000
  0.37500000  0.12500000  0.00000000
  0.37500000  0.16666667  0.00000000
  0.37500000  0.20833333  0.00000000
  0.37500000  0.25000000  0.00000000
  0.37500000  0.29166667  0.00000000
  0.37500000  0.33333333  0.00000000
  0.37500000  0.37500000  0.00000000
  0.37500000  0.41666667  0.00000000
  0.37500000  0.45833333  0.00000000
  0.37500000  0.50000000  0.00000000
  0.37500000  0.54166667  0.00000000
  0.37500000  0.58333333  0.00000000
  0.37500000  0.62500000  0.00000000
  0.37500000  0.66666667  0.00000000
  0.37500000  0.70833333  0.00000000
  0.37500000  0.75000000  0.00000000
  0.37500000  0.79166667  0.00000000
  0.37500000  0.83333333  0.00000000
  0.37500000  0.87500000  0.00000000
  0.37500000  0.91666667  0.00000000
  0.37500000  0.95833333  0.00000000
  0.41666667  0.00000000  0.00000000
  0.41666667  0.04166667  0.00000000
  0.41666667  0.08333333  0.00000000
  0.41666667  0.12500000  0.00000000
  0.41666667  0.16666667  0.00000000
  0.41666667  0.20833333  0.00000000
  0.41666667  0.25000000  0.00000000
  0.41666667  0.29166667  0.00000000
  0.41666667  0.33333333  0.00000000
  0.41666667  0.37500000  0.00000000
  0.41666667  0.41666667  0.00000000
  0.41666667  0.45833333  0.00000000
  0.41666667  0.50000000  0.00000000
  0.41666667  0.54166667  0.00000000
  0.41666667  0.58333333  0.00000000
  0.41666667  0.62500000  0.00000000
  0.41666667  0.66666667  0.00000000
  0.41666667  0.70833333  0.00000000
  0.41666667  0.75000000  0.00000000
  0.41666667  0.79166667  0.00000000
  0.41666667  0.83333333  0.00000000
  0.41666667  0.87500000  0.00000000
  0.41666667  0.91666667  0.00000000
  0.41666667  0.95833333  0.00000000
  0.45833333  0.00000000  0.00000000
  0.45833333  0.04166667  0.00000000
  0.45833333  0.08333333  0.00000000
  0.45833333  0.12500000  0.00000000
  0.45833333  0.16666667  0.00000000
  0.45833333  0.20833333  0.00000000
  0.45833333  0.25000000  0.00000000
  0.45833333  0.29166667  0.00000000
  0.45833333  0.33333333  0.00000000
  0.45833333  0.37500000  0.00000000
  0.45833333  0.41666667  0.00000000
  0.45833333  0.45833333  0.00000000
  0.45833333  0.50000000  0.00000000
  0.45833333  0.54166667  0.00000000
  0.45833333  0.58333333  0.00000000
  0.45833333  0.62500000  0.00000000
  0.45833333  0.66666667  0.00000000
  0.45833333  0.70833333  0.00000000
  0.45833333  0.75000000  0.00000000
  0.45833333  0.79166667  0.00000000
  0.45833333  0.83333333  0.00000000
  0.45833333  0.87500000  0.00000000
  0.45833333  0.91666667  0.00000000
  0.45833333  0.95833333  0.00000000
  0.50000000  0.00000000  0.00000000
  0.50000000  0.04166667  0.00000000
  0.50000000  0.08333333  0.00000000
  0.50000000  0.12500000  0.00000000
  0.50000000  0.16666667  0.00000000
  0.50000000  0.20833333  0.00000000
  0.50000000  0.25000000  0.00000000
  0.50000000  0.29166667  0.00000000
  0.50000000  0.33333333  0.00000000
  0.50000000  0.37500000  0.00000000
  0.50000000  0.41666667  0.00000000
  0.50000000  0.45833333  0.00000000
  0.50000000  0.50000000  0.00000000
  0.50000000  0.54166667  0.00000000
  0.50000000  0.58333333  0.00000000
  0.50000000  0.62500000  0.00000000
  0.50000000  0.66666667  0.00000000
  0.50000000  0.70833333  0.00000000
  0.50000000  0.75000000  0.00000000
  0.50000000  0.79166667  0.00000000
  0.50000000  0.83333333  0.00000000
  0.50000000  0.87500000  0.00000000
  0.50000000  0.91666667  0.00000000
  0.50000000  0.95833333  0.00000000
  0.54166667  0.00000000  0.00000000
  0.54166667  0.04166667  0.00000000
  0.54166667  0.08333333  0.00000000
  0.54166667  0.12500000  0.00000000
  0.54166667  0.16666667  0.00000000
  0.54166667  0.20833333  0.00000000
  0.54166667  0.25000000  0.00000000
  0.54166667  0.29166667  0.00000000
  0.54166667  0.33333333  0.00000000
  0.54166667  0.37500000  0.00000000
  0.54166667  0.41666667  0.00000000
  0.54166667  0.45833333  0.00000000
  0.54166667  0.50000000  0.00000000
  0.54166667  0.54166667  0.00000000
  0.54166667  0.58333333  0.00000000
  0.54166667  0.62500000  0.00000000
  0.54166667  0.66666667  0.00000000
  0.54166667  0.70833333  0.00000000
  0.54166667  0.75000000  0.00000000
  0.54166667  0.79166667  0.00000000
  0.54166667  0.83333333  0.00000000
  0.54166667  0.87500000  0.00000000
  0.54166667  0.91666667  0.00000000
  0.54166667  0.95833333  0.00000000
  0.58333333  0.00000000  0.00000000
  0.58333333  0.04166667  0.00000000
  0.58333333  0.08333333  0.00000000
  0.58333333  0.12500000  0.00000000
  0.58333333  0.16666667  0.00000000
  0.58333333  0.20833333  0.00000000
  0.58333333  0.25000000  0.00000000
  0.58333333  0.29166667  0.00000000
  0.58333333  0.33333333  0.00000000
  0.58333333  0.37500000  0.00000000
  0.58333333  0.41666667  0.00000000
  0.58333333  0.45833333  0.00000000
  0.58333333  0.50000000  0.00000000
  0.58333333  0.54166667  0.00000000
  0.58333333  0.58333333  0.00000000
  0.58333333  0.62500000  0.00000000
  0.58333333  0.66666667  0.00000000
  0.58333333  0.70833333  0.00000000
  0.58333333  0.75000000  0.00000000
  0.58333333  0.79166667  0.00000000
  0.58333333  0.83333333  0.00000000
  0.58333333  0.87500000  0.00000000
  0.58333333  0.91666667  0.00000000
  0.58333333  0.95833333  0.00000000
  0.62500000  0.00000000  0.00000000
  0.62500000  0.04166667  0.00000000
  0.62500000  0.08333333  0.00000000
  0.62500000  0.12500000  0.00000000
  0.62500000  0.16666667  0.00000000
  0.62500000  0.20833333  0.00000000
  0.62500000  0.25000000  0.00000000
  0.62500000  0.29166667  0.00000000
  0.62500000  0.33333333  0.00000000
  0.62500000  0.37500000  0.00000000
  0.62500000  0.41666667  0.00000000
  0.62500000  0.45833333  0.00000000
  0.62500000  0.50000000  0.00000000
  0.62500000  0.54166667  0.00000000
  0.62500000  0.58333333  0.00000000
  0.62500000  0.62500000  0.00000000
  0.62500000  0.66666667  0.00000000
  0.62500000  0.70833333  0.00000000
  0.62500000  0.75000000  0.00000000
  0.62500000  0.79166667  0.00000000
  0.62500000  0.83333333  0.00000000
  0.62500000  0.87500000  0.00000000
  0.62500000  0.91666667  0.00000000
  0.62500000  0.95833333  0.00000000
  0.66666667  0.00000000  0.00000000
  0.66666667  0.04166667  0.00000000
  0.66666667  0.08333333  0.00000000
  0.66666667  0.12500000  0.00000000
  0.66666667  0.16666667  0.00000000
  0.66666667  0.20833333  0.00000000
  0.66666667  0.25000000  0.00000000
  0.66666667  0.29166667  0.00000000
  0.66666667  0.33333333  0.00000000
  0.66666667  0.37500000  0.00000000
  0.66666667  0.41666667  0.00000000
  0.66666667  0.45833333  0.00000000
  0.66666667  0.50000000  0.00000000
  0.66666667  0.54166667  0.00000000
  0.66666667  0.58333333  0.00000000
  0.66666667  0.62500000  0.00000000
  0.66666667  0.66666667  0.00000000
  0.66666667  0.70833333  0.00000000
  0.66666667  0.75000000  0.00000000
  0.66666667  0.79166667  0.00000000
  0.66666667  0.83333333  0.00000000
  0.66666667  0.87500000  0.00000000
  0.66666667  0.91666667  0.00000000
  0.66666667  0.95833333  0.00000000
  0.70833333  0.00000000  0.00000000
  0.70833333  0.04166667  0.00000000
  0.70833333  0.08333333  0.00000000
  0.70833333  0.12500000  0.00000000
  0.70833333  0.16666667  0.00000000
  0.70833333  0.20833333  0.00000000
  0.70833333  0.25000000  0.00000000
  0.70833333  0.29166667  0.00000000
  0.70833333  0.33333333  0.00000000
  0.70833333  0.37500000  0.00000000
  0.70833333  0.41666667  0.00000000
  0.70833333  0.45833333  0.00000000
  0.70833333  0.50000000  0.00000000
  0.70833333  0.54166667  0.00000000
  0.70833333  0.58333333  0.00000000
  0.70833333  0.62500000  0.00000000
  0.70833333  0.66666667  0.00000000
  0.70833333  0.70833333  0.00000000
  0.70833333  0.75000000  0.00000000
  0.70833333  0.79166667  0.00000000
  0.70833333  0.83333333  0.00000000
  0.70833333  0.87500000  0.00000000
  0.70833333  0.91666667  0.00000000
  0.70833333  0.95833333  0.00000000
  0.75000000  0.00000000  0.00000000
  0.75000000  0.04166667  0.00000000
  0.75000000  0.08333333  0.00000000
  0.75000000  0.12500000  0.00000000
  0.75000000  0.16666667  0.00000000
  0.75000000  0.20833333  0.00000000
  0.75000000  0.25000000  0.00000000
  0.75000000  0.29166667  0.00000000
  0.75000000  0.33333333  0.00000000
  0.75000000  0.37500000  0.00000000
  0.75000000  0.41666667  0.00000000
  0.75000000  0.45833333  0.00000000
  0.75000000  0.50000000  0.00000000
  0.75000000  0.54166667  0.00000000
  0.75000000  0.58333333  0.00000000
  0.75000000  0.62500000  0.00000000
  0.75000000  0.66666667  0.00000000
  0.75000000  0.70833333  0.00000000
  0.75000000  0.75000000  0.00000000
  0.75000000  0.79166667  0.00000000
  0.75000000  0.83333333  0.00000000
  0.75000000  0.87500000  0.00000000
  0.75000000  0.91666667  0.00000000
  0.75000000  0.95833333  0.00000000
  0.79166667  0.00000000  0.00000000
  0.79166667  0.04166667  0.00000000
  0.79166667  0.08333333  0.00000000
  0.79166667  0.12500000  0.00000000
  0.79166667  0.16666667  0.00000000
  0.79166667  0.20833333  0.00000000
  0.79166667  0.25000000  0.00000000
  0.79166667  0.29166667  0.00000000
  0.79166667  0.33333333  0.00000000
  0.79166667  0.37500000  0.00000000
  0.79166667  0.41666667  0.00000000
  0.79166667  0.45833333  0.00000000
  0.79166667  0.50000000  0.00000000
  0.79166667  0.54166667  0.00000000
  0.79166667  0.58333333  0.00000000
  0.79166667  0.62500000  0.00000000
  0.79166667  0.66666667  0.00000000
  0.79166667  0.70833333  0.00000000
  0.79166667  0.75000000  0.00000000
  0.79166667  0.79166667  0.00000000
  0.79166667  0.83333333  0.00000000
  0.79166667  0.87500000  0.00000000
  0.79166667  0.91666667  0.00000000
  0.79166667  0.95833333  0.00000000
  0.83333333  0.00000000  0.00000000
  0.83333333  0.04166667  0.00000000
  0.83333333  0.08333333  0.00000000
  0.83333333  0.12500000  0.00000000
  0.83333333  0.16666667  0.00000000
  0.83333333  0.20833333  0.00000000
  0.83333333  0.25000000  0.00000000
  0.83333333  0.29166667  0.00000000
  0.83333333  0.33333333  0.00000000
  0.83333333  0.37500000  0.00000000
  0.83333333  0.41666667  0.00000000
  0.83333333  0.45833333  0.00000000
  0.83333333  0.50000000  0.00000000
  0.83333333  0.54166667  0.00000000
  0.83333333  0.58333333  0.00000000
  0.83333333  0.62500000  0.00000000
  0.83333333  0.66666667  0.00000000
  0.83333333  0.70833333  0.00000000
  0.83333333  0.75000000  0.00000000
  0.83333333  0.79166667  0.00000000
  0.83333333  0.83333333  0.00000000
  0.83333333  0.87500000  0.00000000
  0.83333333  0.91666667  0.00000000
  0.83333333  0.95833333  0.00000000
  0.87500000  0.00000000  0.00000000
  0.87500000  0.04166667  0.00000000
  0.87500000  0.08333333  0.00000000
  0.87500000  0.12500000  0.00000000
  0.87500000  0.16666667  0.00000000
  0.87500000  0.20833333  0.00000000
  0.87500000  0.25000000  0.00000000
  0.87500000  0.29166667  0.00000000
  0.87500000  0.33333333  0.00000000
  0.87500000  0.37500000  0.00000000
  0.87500000  0.41666667  0.00000000
  0.87500000  0.45833333  0.00000000
  0.87500000  0.50000000  0.00000000
  0.87500000  0.54166667  0.00000000
  0.87500000  0.58333333  0.00000000
  0.87500000  0.62500000  0.00000000
  0.87500000  0.66666667  0.00000000
  0.87500000  0.70833333  0.00000000
  0.87500000  0.75000000  0.00000000
  0.87500000  0.79166667  0.00000000
  0.87500000  0.83333333  0.00000000
  0.87500000  0.87500000  0.00000000
  0.87500000  0.91666667  0.00000000
  0.87500000  0.95833333  0.00000000
  0.91666667  0.00000000  0.00000000
  0.91666667  0.04166667  0.00000000
  0.91666667  0.08333333  0.00000000
  0.91666667  0.12500000  0.00000000
  0.91666667  0.16666667  0.00000000
  0.91666667  0.20833333  0.00000000
  0.91666667  0.25000000  0.00000000
  0.91666667  0.29166667  0.00000000
  0.91666667  0.33333333  0.00000000
  0.91666667  0.37500000  0.00000000
  0.91666667  0.41666667  0.00000000
  0.91666667  0.45833333  0.00000000
  0.91666667  0.50000000  0.00000000
  0.91666667  0.54166667  0.00000000
  0.91666667  0.58333333  0.00000000
  0.91666667  0.62500000  0.00000000
  0.91666667  0.66666667  0.00000000
  0.91666667  0.70833333  0.00000000
  0.91666667  0.75000000  0.00000000
  0.91666667  0.79166667  0.00000000
  0.91666667  0.83333333  0.00000000
  0.91666667  0.87500000  0.00000000
  0.91666667  0.91666667  0.00000000
  0.91666667  0.95833333  0.00000000
  0.95833333  0.00000000  0.00000000
  0.95833333  0.04166667  0.00000000
  0.95833333  0.08333333  0.00000000
  0.95833333  0.12500000  0.00000000
  0.95833333  0.16666667  0.00000000
  0.95833333  0.20833333  0.00000000
  0.95833333  0.25000000  0.00000000
  0.95833333  0.29166667  0.00000000
  0.95833333  0.33333333  0.00000000
  0.95833333  0.37500000  0.00000000
  0.95833333  0.41666667  0.00000000
  0.95833333  0.45833333  0.00000000
  0.95833333  0.50000000  0.00000000
  0.95833333  0.54166667  0.00000000
  0.95833333  0.58333333  0.00000000
  0.95833333  0.62500000  0.00000000
  0.95833333  0.66666667  0.00000000
  0.95833333  0.70833333  0.00000000
  0.95833333  0.75000000  0.00000000
  0.95833333  0.79166667  0.00000000
  0.95833333  0.83333333  0.00000000
  0.95833333  0.87500000  0.00000000
  0.95833333  0.91666667  0.00000000
  0.95833333  0.95833333  0.00000000
 End kpoints
